%chk=old_file_reor.chk
%nprocs=4
%mem=3200MB
#p wB97XD/aug-cc-pvtz output=wfx nosymmetry

single point on old_file reoriented by subproptools

0 1
Si1  0.000000  0.000000  0.000000
 H2 -1.482921  0.000000  0.000000
 H3  0.499860  1.396135  0.000000
 C4  0.686936 -0.975581  1.424287
 H5  1.776481 -0.987084  1.398892
 H6  0.373451 -0.530372  2.370039
 H7  0.330504 -2.005240  1.398892
 F8  0.477269 -0.677814 -1.386410

old_file_reor.wfx


